5	4
3	3	4	33	3	30	2	39	3	1	30	2	27	4	27	3	2	21	4	27	3	18
3	3	3	36	1	30	4	33	3	2	30	4	33	3	27	3	4	24	3	27	2	30
4	3	2	21	4	30	3	27	3	3	30	2	27	1	33	3	1	27	3	24	4	21	3	3	24	1	21	2	21
4	3	2	21	3	27	1	24	3	4	24	2	18	3	27	3	1	36	4	30	2	27	3	2	18	1	24	4	18
5	3	1	27	3	24	2	24	3	2	21	4	24	3	24	3	4	24	3	30	1	27	3	2	30	1	27	3	24	3	3	24	2	21	4	27
0	2	4	5	7
9	0	2	3	5
10	7	0	4	3
6	4	3	0	3
7	7	6	3	0
